0 0 0 0
0 1 0 0
0 2 0 0
0 3 0 0
0 4 0 4
0 5 0 1
0 6 0 19
0 7 0 4
0 8 0 4
0 9 0 29
0 10 0 15
0 11 0 8
0 12 0 13
0 13 0 1
0 14 0 18
0 15 0 10
0 16 0 28
0 17 0 34
0 18 0 10
0 19 0 1
0 20 0 28
0 21 0 23
0 22 0 7
0 23 0 57
0 24 0 45
0 25 0 9
0 26 0 60
0 27 0 22
0 28 0 9
0 29 0 27
0 30 0 7
0 31 0 18
0 32 0 18
0 33 0 12
0 34 0 18
0 35 0 43
0 36 0 10
0 37 0 36
0 38 0 17
0 39 0 80
0 40 0 50
0 41 0 28
0 42 0 29
0 43 0 33
0 44 0 19
0 45 0 17
0 46 0 24
0 47 0 28
0 48 0 62
0 49 0 29
0 50 0 17
0 51 0 61
0 52 0 29
0 53 0 68
0 54 0 46
0 55 0 39
0 56 0 18
0 57 0 52
0 58 0 14
0 59 0 43
0 60 0 29
0 61 0 30
0 62 0 48
0 63 0 76
0 64 0 28
0 65 0 34
0 66 0 28
0 67 0 55
0 68 0 38
0 69 0 23
0 70 0 50
0 71 0 60
0 72 0 26
0 73 0 21
0 74 0 33
0 75 0 47
0 76 0 42
0 77 0 42
0 78 0 48
0 79 0 38
0 80 0 49
0 81 0 57
0 82 0 61
0 83 0 37
0 84 0 46
0 85 0 43
0 86 0 38
0 87 0 52
0 88 0 56
0 89 0 66
0 90 0 52
0 91 0 56
0 92 0 43
0 93 0 85
0 94 0 62
0 95 0 60
0 96 0 65
0 97 0 63
0 98 0 65
0 99 0 68
0 100 0 66
0 101 0 67
0 102 0 76
0 103 0 76
0 104 0 69
0 105 0 76
0 106 0 68
0 107 0 76
0 108 0 55
0 109 0 85
0 110 0 80
0 111 0 65
0 112 0 80
0 113 0 76
0 114 0 66
0 115 0 79
0 116 0 81
0 117 0 86
0 118 0 84
0 119 0 87
0 120 0 89
0 121 0 93
